RAW/montane/fspd-mid/r101_seed-2.out
1009.95222	0.486	135.528
