RAW/montane/fspd-mid/r101_seed-2.sol
Route #1: 76 77 3 79 50 1 27
Route #2: 13 87 42 43 15 57 2 58
Route #3: 94 95 97 92 59 99 96 6
Route #4: 98 37 100 91 85 93
Route #5: 28 12 54 55 25 4 21 53
Route #6: 18 8 46 45 83 60 89
Route #7: 68 80 24 29 34 78 81 33
Route #8: 40 73 74 22 41 23 67 39 56 75 72 26
Route #9: 70 30 20 66 65 71 35 9 51
Route #10: 7 19 64 49 36 47 48 82
Route #11: 69 31 10 32 90 63 11 62 88 52
Route #12: 61 16 44 14 38 86 17 84 5
Cost 1009.952220